m = 3; % LINAC设备数量

paciente = 4; % 新增患者数量

% 每个患者申请的天（工作日），例如病人1在第1天申请，病人2在第3天申请
solicitud = [1, 3, 5, 5]; 

sesion = 3; % 每个患者的会话次数

% 每个患者每次会话的持续时间（以15分钟为单位）
duracion =  
        [| 4, 4, 4 % 病人1，每次会话持续60分钟
         | 6, 6, 6 % 病人2，每次会话持续90分钟
         | 3, 3, 3 % 病人3，每次会话持续45分钟
         | 5, 5, 5 |]; % 病人4，每次会话持续75分钟

% 理想情况下，每次会话之间的天数间隔
separacion = array2d(1..4, 2..3, [2, 3, 3, 2, 1, 2, 4, 3]);

% 每个LINAC每天的可用时间（扣除已安排的其他会话时间），以15分钟为单位
disponible = 
        [| 48, 48, 48, 48, 48, 48, 48, 48, 48, 48, 48, 48, 48, 48, 48, 48, 48, 48, 48, 48, 48 % LINAC 1
         | 48, 48, 48, 48, 48, 48, 48, 48, 48, 48, 48, 48, 48, 48, 48, 48, 48, 48, 48, 48, 48 % LINAC 2
         | 48, 48, 48, 48, 48, 48, 48, 48, 48, 48, 48, 48, 48, 48, 48, 48, 48, 48, 48, 48, 48 |]; % LINAC 3
